(set-logic QF_S)
(declare-fun var_0xINPUT_65886 () String)
(assert (and (= (len var_0xINPUT_65886) 0) (= (len var_0xINPUT_65886) 0) (not (= var_0xINPUT_65886 "Example:")) (not (= var_0xINPUT_65886 "ND6MEXdqBD"))))
(check-sat var_0xINPUT_65886)